Optimal - objective value 3404.00000000
      5 x_0_6                   1                     335
     18 x_1_8                   1                      42
     31 x_2_10                  1                       0
     34 x_3_1                   1                      43
     54 x_4_11                  1                      38
     61 x_5_7                   1                       0
     68 x_6_2                   1                     312
     77 x_7_0                   1                     172
     96 x_8_9                   1                       0
    104 x_9_5                   1                     -15
    114 x_10_4                  1                       0
    124 x_11_3                  1                      64
    132 u_1       6.99999999999999                       0
    133 u_2                     2                       0
    134 u_3       5.99999999999999                       0
    135 u_4                     4                       0
    136 u_5       9.99999999999999                       0
    137 u_6                     1                       0
    138 u_7                    11                       0
    139 u_8       7.99999999999999                       0
    140 u_9       8.99999999999999                       0
    141 u_10                    3                       0
    142 u_11                    5                       0
